Grasp exp. instance_n_15_m_5_id_2.lp tipoLifted 0 szPool 1 nIteration 20 alpha 0.6 
Academic license - for non-commercial use only
Read LP format model from file ../input/instancesGenerated/instance_n_15_m_5_id_2.lp
Reading time = 0.00 seconds
: 5 rows, 15 columns, 75 nonzeros
Optimize a model with 5 rows, 15 columns and 75 nonzeros
Variable types: 0 continuous, 15 integer (15 binary)
Coefficient statistics:
  Matrix range     [1e+00, 1e+01]
  Objective range  [1e+00, 1e+01]
  Bounds range     [1e+00, 1e+00]
  RHS range        [4e+01, 5e+01]
Found heuristic solution: objective 36.0000000

Explored 0 nodes (0 simplex iterations) in 0.00 seconds
Thread count was 1 (of 8 available processors)

Solution count 1: 36 
No other solutions better than 0

Solution limit reached
Best objective 3.600000000000e+01, best bound -, gap -
C_1:	 6.00 x_1  = 1.000000 + 6.00 x_2  = 0.000000 + 1.00 x_3  = 0.000000 + 4.00 x_4  = 1.000000 + 5.00 x_5  = 0.101545 + 9.00 x_6  = 0.253863 + 9.00 x_7  = 0.112583 + 2.00 x_8  = 1.000000 + 4.00 x_9  = 0.000000 + 1.00 x_10  = 1.000000 + 6.00 x_11  = 1.000000 + 2.00 x_12  = 0.000000 + 7.00 x_13  = 1.000000 + 8.00 x_14  = 0.024283 + 9.00 x_15  = 1.000000 <= 39.00
C_2:	 4.00 x_1  = 1.000000 + 9.00 x_2  = 0.000000 + 2.00 x_3  = 0.000000 + 7.00 x_4  = 1.000000 + 8.00 x_5  = 0.101545 + 7.00 x_6  = 0.253863 + 3.00 x_7  = 0.112583 + 7.00 x_8  = 1.000000 + 7.00 x_9  = 0.000000 + 10.00 x_10  = 1.000000 + 6.00 x_11  = 1.000000 + 5.00 x_12  = 0.000000 + 2.00 x_13  = 1.000000 + 3.00 x_14  = 0.024283 + 1.00 x_15  = 1.000000 <= 40.00
C_3:	 8.00 x_1  = 1.000000 + 9.00 x_2  = 0.000000 + 8.00 x_3  = 0.000000 + 1.00 x_4  = 1.000000 + 4.00 x_5  = 0.101545 + 2.00 x_6  = 0.253863 + 9.00 x_7  = 0.112583 + 5.00 x_8  = 1.000000 + 5.00 x_9  = 0.000000 + 4.00 x_10  = 1.000000 + 5.00 x_11  = 1.000000 + 3.00 x_12  = 0.000000 + 5.00 x_13  = 1.000000 + 3.00 x_14  = 0.024283 + 10.00 x_15  = 1.000000 <= 40.00
C_4:	 6.00 x_1  = 1.000000 + 7.00 x_2  = 0.000000 + 8.00 x_3  = 0.000000 + 7.00 x_4  = 1.000000 + 3.00 x_5  = 0.101545 + 7.00 x_6  = 0.253863 + 6.00 x_7  = 0.112583 + 7.00 x_8  = 1.000000 + 5.00 x_9  = 0.000000 + 2.00 x_10  = 1.000000 + 9.00 x_11  = 1.000000 + 1.00 x_12  = 0.000000 + 7.00 x_13  = 1.000000 + 10.00 x_14  = 0.024283 + 3.00 x_15  = 1.000000 <= 44.00
C_5:	 9.00 x_1  = 1.000000 + 9.00 x_2  = 0.000000 + 3.00 x_3  = 0.000000 + 7.00 x_4  = 1.000000 + 9.00 x_5  = 0.101545 + 9.00 x_6  = 0.253863 + 10.00 x_7  = 0.112583 + 10.00 x_8  = 1.000000 + 3.00 x_9  = 0.000000 + 7.00 x_10  = 1.000000 + 3.00 x_11  = 1.000000 + 9.00 x_12  = 0.000000 + 9.00 x_13  = 1.000000 + 10.00 x_14  = 0.024283 + 1.00 x_15  = 1.000000 <= 54.00
Solution initial: 64.344371 
Number Constraints Used in Cover:5
GRASP Method!
Number cuts repeat: 0
value: 64.344371
Number Constraints Used in Cover:7
GRASP Method!
Number cuts repeat: 0
value: 64.344371
Number Constraints Used in Cover:9
GRASP Method!
Number cuts repeat: 0
value: 64.344371
Number Constraints Used in Cover:11
GRASP Method!
Number cuts repeat: 0
value: 64.344371
Number Constraints Used in Cover:13
GRASP Method!
Number cuts repeat: 0
value: 64.344371
Number Constraints Used in Cover:15
GRASP Method!
Number cuts repeat: 0
value: 63.920306
Number Constraints Used in Cover:18
GRASP Method!
Number cuts repeat: 0
value: 63.920306
Number Constraints Used in Cover:21
GRASP Method!
Number cuts repeat: 0
value: 63.920306
Number Constraints Used in Cover:24
GRASP Method!
Number cuts repeat: 0
value: 63.920306
Number Constraints Used in Cover:27
GRASP Method!
Number cuts repeat: 0
value: 63.920306
Number Constraints Used in Cover:29
GRASP Method!
Number cuts repeat: 0
value: 63.920306
Number Constraints Used in Cover:31
GRASP Method!
Number cuts repeat: 0
value: 63.920306
Number Constraints Used in Cover:33
GRASP Method!
Number cuts repeat: 0
value: 63.920306
Number Constraints Used in Cover:35
GRASP Method!
Number cuts repeat: 0
value: 63.920306
Number Constraints Used in Cover:37
GRASP Method!
Number cuts repeat: 0
value: 63.920306
Number Constraints Used in Cover:41
GRASP Method!
Number cuts repeat: 0
value: 63.920306
Number Constraints Used in Cover:45
GRASP Method!
Number cuts repeat: 0
value: 63.920306
Number Constraints Used in Cover:49
GRASP Method!
Number cuts repeat: 0
value: 63.920306
Number Constraints Used in Cover:50
GRASP Method!
Number cuts repeat: 0
value: 63.920306
Number Constraints Used in Cover:54
GRASP Method!
Number cuts repeat: 0
value: 63.920306
Number Constraints Used in Cover:56
GRASP Method!
Number cuts repeat: 0
value: 63.920306
Number Constraints Used in Cover:60
GRASP Method!
Number cuts repeat: 0
value: 63.920306
Number Constraints Used in Cover:62
GRASP Method!
Number cuts repeat: 0
value: 63.920306
Number Constraints Used in Cover:64
GRASP Method!
Number cuts repeat: 0
value: 63.920306
Number Constraints Used in Cover:67
GRASP Method!
Number cuts repeat: 0
value: 63.920306
Number Constraints Used in Cover:68
GRASP Method!
Number cuts repeat: 0
value: 63.920306
Number Constraints Used in Cover:70
GRASP Method!
Number cuts repeat: 0
value: 63.920306
Number Constraints Used in Cover:73
GRASP Method!
Number cuts repeat: 0
value: 63.920306
Number Constraints Used in Cover:74
GRASP Method!
Number cuts repeat: 0
value: 63.920306
Number Constraints Used in Cover:74
GRASP Method!
Number cuts repeat: 0
value: 63.920306
Number Constraints Used in Cover:74
GRASP Method!
Number cuts repeat: 0
value: 63.920306
Number Constraints Used in Cover:76
GRASP Method!
Number cuts repeat: 0
value: 63.920306
Number Constraints Used in Cover:80
GRASP Method!
Number cuts repeat: 0
value: 63.920306
Number Constraints Used in Cover:83
GRASP Method!
Number cuts repeat: 0
value: 63.920306
Number Constraints Used in Cover:85
GRASP Method!
Number cuts repeat: 0
value: 63.920306
Number Constraints Used in Cover:89
GRASP Method!
Number cuts repeat: 0
value: 63.920306
Number Constraints Used in Cover:91
GRASP Method!
Number cuts repeat: 0
value: 63.920306
Number Constraints Used in Cover:94
GRASP Method!
Number cuts repeat: 0
value: 63.920306
Number Constraints Used in Cover:97
GRASP Method!
Number cuts repeat: 0
value: 63.920306
Number Constraints Used in Cover:98
GRASP Method!
Number cuts repeat: 0
value: 63.920306
Number Constraints Used in Cover:101
GRASP Method!
Number cuts repeat: 0
value: 63.920306
Number Constraints Used in Cover:102
GRASP Method!
Number cuts repeat: 0
value: 63.920306
Number Constraints Used in Cover:105
GRASP Method!
Number cuts repeat: 0
value: 63.920306
Number Constraints Used in Cover:106
GRASP Method!
Number cuts repeat: 0
value: 63.920306
Number Constraints Used in Cover:107
GRASP Method!
Number cuts repeat: 0
value: 63.920306
Number Constraints Used in Cover:109
GRASP Method!
Number cuts repeat: 0
value: 63.920306
Number Constraints Used in Cover:111
GRASP Method!
Number cuts repeat: 0
value: 63.920306
Number Constraints Used in Cover:111
GRASP Method!
Number cuts repeat: 0
value: 63.920306
Number Constraints Used in Cover:113
GRASP Method!
Number cuts repeat: 0
value: 63.920306
Number Constraints Used in Cover:114
GRASP Method!
Number cuts repeat: 0
value: 63.920306
Number Constraints Used in Cover:115
GRASP Method!
Number cuts repeat: 0
value: 63.920306
Number Constraints Used in Cover:117
GRASP Method!
Number cuts repeat: 0
value: 63.920306
Number Constraints Used in Cover:117
GRASP Method!
Number cuts repeat: 0
value: 63.920306
Number Constraints Used in Cover:117
GRASP Method!
Number cuts repeat: 0
value: 63.920306
Number Constraints Used in Cover:119
GRASP Method!
Number cuts repeat: 0
value: 63.920306
Number Constraints Used in Cover:119
GRASP Method!
Number cuts repeat: 0
value: 63.920306
Number Constraints Used in Cover:120
GRASP Method!
Number cuts repeat: 0
value: 63.920306
Number Constraints Used in Cover:121
GRASP Method!
Number cuts repeat: 0
value: 63.920306
Number Constraints Used in Cover:124
GRASP Method!
Number cuts repeat: 0
value: 63.920306
Number Constraints Used in Cover:125
GRASP Method!
Number cuts repeat: 0
value: 63.920306
Number Constraints Used in Cover:125
GRASP Method!
Number cuts repeat: 0
value: 63.920306
Number Constraints Used in Cover:126
GRASP Method!
Number cuts repeat: 0
value: 63.920306
Number Constraints Used in Cover:127
GRASP Method!
Number cuts repeat: 0
value: 63.920306
Number Constraints Used in Cover:128
GRASP Method!
Number cuts repeat: 0
value: 63.920306
Number Constraints Used in Cover:129
GRASP Method!
Number cuts repeat: 0
value: 63.920306
Number Constraints Used in Cover:129
GRASP Method!
Number cuts repeat: 0
value: 63.920306
Number Constraints Used in Cover:129
GRASP Method!
Number cuts repeat: 0
value: 63.920306
Number Constraints Used in Cover:129
GRASP Method!
Number cuts repeat: 0
value: 63.920306
Number Constraints Used in Cover:131
GRASP Method!
Number cuts repeat: 0
value: 63.920306
Number Constraints Used in Cover:132
GRASP Method!
Number cuts repeat: 0
value: 63.920306
Number Constraints Used in Cover:134
GRASP Method!
Number cuts repeat: 0
value: 63.920306
Number Constraints Used in Cover:134
GRASP Method!
Number cuts repeat: 0
value: 63.920306
Number Constraints Used in Cover:135
GRASP Method!
Number cuts repeat: 0
value: 63.920306
Number Constraints Used in Cover:138
GRASP Method!
Number cuts repeat: 0
value: 63.920306
Number Constraints Used in Cover:139
GRASP Method!
Number cuts repeat: 0
value: 63.920306
Number Constraints Used in Cover:141
GRASP Method!
Number cuts repeat: 0
value: 63.920306
Number Constraints Used in Cover:143
GRASP Method!
Number cuts repeat: 0
value: 63.920306
Number Constraints Used in Cover:145
GRASP Method!
Number cuts repeat: 0
value: 63.920306
Number Constraints Used in Cover:147
GRASP Method!
Number cuts repeat: 0
value: 63.920306
Number Constraints Used in Cover:148
GRASP Method!
Number cuts repeat: 0
value: 63.920306
Number Constraints Used in Cover:148
GRASP Method!
Number cuts repeat: 0
value: 63.920306
Number Constraints Used in Cover:148
GRASP Method!
Number cuts repeat: 0
value: 63.920306
Number Constraints Used in Cover:148
GRASP Method!
Number cuts repeat: 0
value: 63.920306
Number Constraints Used in Cover:149
GRASP Method!
Number cuts repeat: 0
value: 63.920306
Number Constraints Used in Cover:151
GRASP Method!
Number cuts repeat: 0
value: 63.920306
Number Constraints Used in Cover:152
GRASP Method!
Number cuts repeat: 0
value: 63.920306
Number Constraints Used in Cover:152
GRASP Method!
Number cuts repeat: 0
value: 63.920306
Number Constraints Used in Cover:153
GRASP Method!
Number cuts repeat: 0
value: 63.920306
Number Constraints Used in Cover:153
GRASP Method!
Number cuts repeat: 0
value: 63.920306
Number Constraints Used in Cover:154
GRASP Method!
Number cuts repeat: 0
value: 63.920306
Number Constraints Used in Cover:155
GRASP Method!
Number cuts repeat: 0
value: 63.920306
Number Constraints Used in Cover:156
GRASP Method!
Number cuts repeat: 0
value: 63.920306
Number Constraints Used in Cover:157
GRASP Method!
Number cuts repeat: 0
value: 63.920306
Number Constraints Used in Cover:157
GRASP Method!
Number cuts repeat: 0
value: 63.920306
Number Constraints Used in Cover:158
GRASP Method!
Number cuts repeat: 0
value: 63.920306
Number Constraints Used in Cover:158
GRASP Method!
Number cuts repeat: 0
value: 63.920306
Number Constraints Used in Cover:158
GRASP Method!
Number cuts repeat: 0
value: 63.920306
Number Constraints Used in Cover:158
GRASP Method!
Number cuts repeat: 0
value: 63.920306
Number Constraints Used in Cover:159
GRASP Method!
Number cuts repeat: 0
value: 63.920306
Number Constraints Used in Cover:160
GRASP Method!
Number cuts repeat: 0
value: 63.920306
Number Constraints Used in Cover:163
GRASP Method!
Number cuts repeat: 0
value: 63.920306
Number Constraints Used in Cover:164
GRASP Method!
Number cuts repeat: 0
value: 63.920306
Number Constraints Used in Cover:164
GRASP Method!
Number cuts repeat: 0
value: 63.920306
Number Constraints Used in Cover:165
GRASP Method!
Number cuts repeat: 0
value: 63.920306
Number Constraints Used in Cover:165
GRASP Method!
Number cuts repeat: 0
value: 63.920306
Number Constraints Used in Cover:165
GRASP Method!
Number cuts repeat: 0
value: 63.920306
Number Constraints Used in Cover:165
GRASP Method!
Number cuts repeat: 0
value: 63.920306
Number Constraints Used in Cover:166
GRASP Method!
Number cuts repeat: 0
value: 63.920306
Number Constraints Used in Cover:167
GRASP Method!
Number cuts repeat: 0
value: 63.920306
Number Constraints Used in Cover:168
GRASP Method!
Number cuts repeat: 0
value: 63.920306
Number Constraints Used in Cover:168
GRASP Method!
Number cuts repeat: 0
value: 63.920306
Number Constraints Used in Cover:168
GRASP Method!
Number cuts repeat: 0
value: 63.920306
Number Constraints Used in Cover:168
GRASP Method!
Number cuts repeat: 0
value: 63.920306
Number Constraints Used in Cover:169
GRASP Method!
Number cuts repeat: 0
value: 63.920306
Number Constraints Used in Cover:170
GRASP Method!
Number cuts repeat: 0
value: 63.920306
Number Constraints Used in Cover:171
GRASP Method!
Number cuts repeat: 0
value: 63.920306
Number Constraints Used in Cover:172
GRASP Method!
Number cuts repeat: 0
value: 63.920306
Number Constraints Used in Cover:172
GRASP Method!
Number cuts repeat: 0
value: 63.920306
Number Constraints Used in Cover:173
GRASP Method!
Number cuts repeat: 0
value: 63.920306
Number Constraints Used in Cover:173
GRASP Method!
Number cuts repeat: 0
value: 63.920306
Number Constraints Used in Cover:173
GRASP Method!
Number cuts repeat: 0
value: 63.920306
Number Constraints Used in Cover:174
GRASP Method!
Number cuts repeat: 0
value: 63.920306
Number Constraints Used in Cover:175
GRASP Method!
Number cuts repeat: 0
value: 63.920306
Number Constraints Used in Cover:176
GRASP Method!
Number cuts repeat: 0
value: 63.920306
Number Constraints Used in Cover:176
GRASP Method!
Number cuts repeat: 0
value: 63.920306
Number Constraints Used in Cover:177
GRASP Method!
Number cuts repeat: 0
value: 63.920306
Number Constraints Used in Cover:177
GRASP Method!
Number cuts repeat: 0
value: 63.920306
Number Constraints Used in Cover:178
GRASP Method!
Number cuts repeat: 0
value: 63.920306
Number Constraints Used in Cover:179
GRASP Method!
Number cuts repeat: 0
value: 63.920306
Number Constraints Used in Cover:180
GRASP Method!
Number cuts repeat: 0
value: 63.920306
Number Constraints Used in Cover:181
GRASP Method!
Number cuts repeat: 0
value: 63.920306
Number Constraints Used in Cover:182
GRASP Method!
Number cuts repeat: 0
value: 63.920306
Number Constraints Used in Cover:182
GRASP Method!
Number cuts repeat: 0
value: 63.920306
Number Constraints Used in Cover:182
GRASP Method!
Number cuts repeat: 0
value: 63.920306
Number Constraints Used in Cover:182
GRASP Method!
Number cuts repeat: 0
value: 63.920306
Number Constraints Used in Cover:183
GRASP Method!
Number cuts repeat: 0
value: 63.920306
Number Constraints Used in Cover:183
GRASP Method!
Number cuts repeat: 0
value: 63.920306
Number Constraints Used in Cover:183
GRASP Method!
Number cuts repeat: 0
value: 63.920306
Number Constraints Used in Cover:185
GRASP Method!
Number cuts repeat: 0
value: 63.920306
Number Constraints Used in Cover:185
GRASP Method!
Number cuts repeat: 0
value: 63.920306
Number Constraints Used in Cover:185
GRASP Method!
Number cuts repeat: 0
value: 63.920306
Number Constraints Used in Cover:185
GRASP Method!
Number cuts repeat: 0
value: 63.920306
Number Constraints Used in Cover:187
GRASP Method!
Number cuts repeat: 0
value: 63.920306
Number Constraints Used in Cover:188
GRASP Method!
Number cuts repeat: 0
value: 63.920306
Number Constraints Used in Cover:189
GRASP Method!
Number cuts repeat: 0
value: 63.920306
Number Constraints Used in Cover:189
GRASP Method!
Number cuts repeat: 0
value: 63.920306
Number Constraints Used in Cover:190
GRASP Method!
Number cuts repeat: 0
value: 63.920306
Number Constraints Used in Cover:191
GRASP Method!
Number cuts repeat: 0
value: 63.920306
Number Constraints Used in Cover:191
GRASP Method!
Number cuts repeat: 0
value: 63.920306
Number Constraints Used in Cover:191
GRASP Method!
Number cuts repeat: 0
value: 63.920306
Number Constraints Used in Cover:191
GRASP Method!
Number cuts repeat: 0
value: 63.920306
Number Constraints Used in Cover:191
GRASP Method!
Number cuts repeat: 0
value: 63.920306
Number Constraints Used in Cover:192
GRASP Method!
Number cuts repeat: 0
value: 63.920306
Number Constraints Used in Cover:192
GRASP Method!
Number cuts repeat: 0
value: 63.920306
Number Constraints Used in Cover:193
GRASP Method!
Number cuts repeat: 0
value: 63.920306
Number Constraints Used in Cover:193
GRASP Method!
Number cuts repeat: 0
value: 63.789567
Number Constraints Used in Cover:194
GRASP Method!
Number cuts repeat: 0
value: 63.789567
Number Constraints Used in Cover:196
GRASP Method!
Number cuts repeat: 0
value: 63.789567
Number Constraints Used in Cover:197
GRASP Method!
Number cuts repeat: 0
value: 63.789567
Number Constraints Used in Cover:199
GRASP Method!
Number cuts repeat: 0
value: 63.789567
Number Constraints Used in Cover:200
GRASP Method!
Number cuts repeat: 0
value: 63.789567
Number Constraints Used in Cover:202
GRASP Method!
Number cuts repeat: 0
value: 63.789567
Number Constraints Used in Cover:204
GRASP Method!
Number cuts repeat: 0
value: 63.789567
Number Constraints Used in Cover:206
GRASP Method!
Number cuts repeat: 0
value: 63.789567
Number Constraints Used in Cover:208
GRASP Method!
Number cuts repeat: 0
value: 63.789567
Number Constraints Used in Cover:209
GRASP Method!
Number cuts repeat: 0
value: 63.789567
Number Constraints Used in Cover:211
GRASP Method!
Number cuts repeat: 0
value: 63.789567
Number Constraints Used in Cover:212
GRASP Method!
Number cuts repeat: 0
value: 63.789567
Number Constraints Used in Cover:213
GRASP Method!
Number cuts repeat: 0
value: 63.789567
Number Constraints Used in Cover:215
GRASP Method!
Number cuts repeat: 0
value: 63.789567
Number Constraints Used in Cover:217
GRASP Method!
Number cuts repeat: 0
value: 63.789567
Number Constraints Used in Cover:220
GRASP Method!
Number cuts repeat: 0
value: 63.789567
Number Constraints Used in Cover:221
GRASP Method!
Number cuts repeat: 0
value: 63.789567
Number Constraints Used in Cover:222
GRASP Method!
Number cuts repeat: 0
value: 63.789567
Number Constraints Used in Cover:223
GRASP Method!
Number cuts repeat: 0
value: 63.789567
Number Constraints Used in Cover:226
GRASP Method!
Number cuts repeat: 0
value: 63.789567
Number Constraints Used in Cover:229
GRASP Method!
Number cuts repeat: 0
value: 63.789567
Number Constraints Used in Cover:231
GRASP Method!
Number cuts repeat: 0
value: 63.789567
Number Constraints Used in Cover:232
GRASP Method!
Number cuts repeat: 0
value: 63.789567
Number Constraints Used in Cover:234
GRASP Method!
Number cuts repeat: 0
value: 63.789567
Number Constraints Used in Cover:236
GRASP Method!
Number cuts repeat: 0
value: 63.789567
Number Constraints Used in Cover:239
GRASP Method!
Number cuts repeat: 0
value: 63.789567
Number Constraints Used in Cover:241
GRASP Method!
Number cuts repeat: 0
value: 63.789567
Number Constraints Used in Cover:243
GRASP Method!
Number cuts repeat: 0
value: 63.789567
Number Constraints Used in Cover:246
GRASP Method!
Number cuts repeat: 0
value: 63.789567
Number Constraints Used in Cover:247
GRASP Method!
Number cuts repeat: 0
value: 63.789567
Number Constraints Used in Cover:250
GRASP Method!
Number cuts repeat: 0
value: 63.789567
Number Constraints Used in Cover:253
GRASP Method!
Number cuts repeat: 0
value: 63.789567
Number Constraints Used in Cover:256
GRASP Method!
Number cuts repeat: 0
value: 63.789567
Number Constraints Used in Cover:258
GRASP Method!
Number cuts repeat: 0
value: 63.789567
Number Constraints Used in Cover:261
GRASP Method!
Number cuts repeat: 0
value: 63.789567
Number Constraints Used in Cover:263
GRASP Method!
Number cuts repeat: 0
value: 63.789567
Number Constraints Used in Cover:266
GRASP Method!
Number cuts repeat: 0
value: 63.789567
Number Constraints Used in Cover:268
GRASP Method!
Number cuts repeat: 0
value: 63.789567
Number Constraints Used in Cover:271
GRASP Method!
Number cuts repeat: 0
value: 63.789567
Number Constraints Used in Cover:271
GRASP Method!
Number cuts repeat: 0
value: 63.789567
Number Constraints Used in Cover:272
GRASP Method!
Number cuts repeat: 0
value: 63.789567
Number Constraints Used in Cover:274
GRASP Method!
Number cuts repeat: 0
value: 63.789567
Number Constraints Used in Cover:275
GRASP Method!
Number cuts repeat: 0
value: 63.789567
Number Constraints Used in Cover:278
GRASP Method!
Number cuts repeat: 0
value: 63.789567
Number Constraints Used in Cover:279
GRASP Method!
Number cuts repeat: 0
value: 63.789567
Number Constraints Used in Cover:281
GRASP Method!
Number cuts repeat: 0
value: 63.789567
Number Constraints Used in Cover:281
GRASP Method!
Number cuts repeat: 0
value: 63.789567
Number Constraints Used in Cover:284
GRASP Method!
Number cuts repeat: 0
value: 63.789567
Number Constraints Used in Cover:286
GRASP Method!
Number cuts repeat: 0
value: 63.789567
Number Constraints Used in Cover:286
GRASP Method!
Number cuts repeat: 0
value: 63.789567
Number Constraints Used in Cover:288
GRASP Method!
Number cuts repeat: 0
value: 63.789567
Number Constraints Used in Cover:289
GRASP Method!
Number cuts repeat: 0
value: 63.789567
Number Constraints Used in Cover:290
GRASP Method!
Number cuts repeat: 0
value: 63.789567
Number Constraints Used in Cover:291
GRASP Method!
Number cuts repeat: 0
value: 63.789567
Number Constraints Used in Cover:293
GRASP Method!
Number cuts repeat: 0
value: 63.789567
Number Constraints Used in Cover:294
GRASP Method!
Number cuts repeat: 0
value: 63.789567
Number Constraints Used in Cover:295
GRASP Method!
Number cuts repeat: 0
value: 63.789567
Number Constraints Used in Cover:295
GRASP Method!
Number cuts repeat: 0
value: 63.789567
Number Constraints Used in Cover:296
GRASP Method!
Number cuts repeat: 0
value: 63.789567
Number Constraints Used in Cover:297
GRASP Method!
Number cuts repeat: 0
value: 63.789567
Number Constraints Used in Cover:298
GRASP Method!
Number cuts repeat: 0
value: 63.789567
Number Constraints Used in Cover:300
GRASP Method!
Number cuts repeat: 0
value: 63.789567
Number Constraints Used in Cover:302
GRASP Method!
Number cuts repeat: 0
value: 63.789567
Number Constraints Used in Cover:302
GRASP Method!
Number cuts repeat: 0
value: 63.789567
Number Constraints Used in Cover:303
GRASP Method!
Number cuts repeat: 0
value: 63.789567
Number Constraints Used in Cover:305
GRASP Method!
Number cuts repeat: 0
value: 63.789567
Number Constraints Used in Cover:305
GRASP Method!
Number cuts repeat: 0
value: 63.789567
Number Constraints Used in Cover:307
GRASP Method!
Number cuts repeat: 0
value: 63.789567
Number Constraints Used in Cover:307
GRASP Method!
Number cuts repeat: 0
value: 63.789567
Number Constraints Used in Cover:310
GRASP Method!
Number cuts repeat: 0
value: 63.789567
Number Constraints Used in Cover:312
GRASP Method!
Number cuts repeat: 0
value: 63.789567
Number Constraints Used in Cover:313
GRASP Method!
Number cuts repeat: 0
value: 63.789567
Number Constraints Used in Cover:315
GRASP Method!
Number cuts repeat: 0
value: 63.789567
Number Constraints Used in Cover:317
GRASP Method!
Number cuts repeat: 0
value: 63.789567
Number Constraints Used in Cover:318
GRASP Method!
Number cuts repeat: 0
value: 63.789567
Number Constraints Used in Cover:319
GRASP Method!
Number cuts repeat: 0
value: 63.789567
Number Constraints Used in Cover:319
GRASP Method!
Number cuts repeat: 0
value: 63.789567
Number Constraints Used in Cover:319
GRASP Method!
Number cuts repeat: 0
value: 63.789567
Number Constraints Used in Cover:321
GRASP Method!
Number cuts repeat: 0
value: 63.789567
Number Constraints Used in Cover:323
GRASP Method!
Number cuts repeat: 0
value: 63.789567
Number Constraints Used in Cover:324
GRASP Method!
Number cuts repeat: 0
value: 63.789567
Number Constraints Used in Cover:326
GRASP Method!
Number cuts repeat: 0
value: 63.789567
Number Constraints Used in Cover:327
GRASP Method!
Number cuts repeat: 0
value: 63.789567
Number Constraints Used in Cover:329
GRASP Method!
Number cuts repeat: 0
value: 63.789567
Number Constraints Used in Cover:330
GRASP Method!
Number cuts repeat: 0
value: 63.789567
Number Constraints Used in Cover:333
GRASP Method!
Number cuts repeat: 0
value: 63.789567
Number Constraints Used in Cover:336
GRASP Method!
Number cuts repeat: 0
value: 63.789567
Number Constraints Used in Cover:336
GRASP Method!
Number cuts repeat: 0
value: 63.789567
Number Constraints Used in Cover:336
GRASP Method!
Number cuts repeat: 0
value: 63.789567
Number Constraints Used in Cover:337
GRASP Method!
Number cuts repeat: 0
value: 63.789567
Number Constraints Used in Cover:338
GRASP Method!
Number cuts repeat: 0
value: 63.789567
Number Constraints Used in Cover:339
GRASP Method!
Number cuts repeat: 0
value: 63.789567
Number Constraints Used in Cover:340
GRASP Method!
Number cuts repeat: 0
value: 63.789567
Number Constraints Used in Cover:342
GRASP Method!
Number cuts repeat: 0
value: 63.789567
Number Constraints Used in Cover:344
GRASP Method!
Number cuts repeat: 0
value: 63.789567
Number Constraints Used in Cover:347
GRASP Method!
Number cuts repeat: 0
value: 63.789567
Number Constraints Used in Cover:348
GRASP Method!
Number cuts repeat: 0
value: 63.789567
Number Constraints Used in Cover:348
GRASP Method!
Number cuts repeat: 0
value: 63.789567
Number Constraints Used in Cover:349
GRASP Method!
Number cuts repeat: 0
value: 63.789567
Number Constraints Used in Cover:352
GRASP Method!
Number cuts repeat: 0
value: 63.789567
Number Constraints Used in Cover:352
GRASP Method!
Number cuts repeat: 0
value: 63.789567
Number Constraints Used in Cover:355
GRASP Method!
Number cuts repeat: 0
value: 63.789567
Number Constraints Used in Cover:356
GRASP Method!
Number cuts repeat: 0
value: 63.789567
Number Constraints Used in Cover:357
GRASP Method!
Number cuts repeat: 0
value: 63.789567
Number Constraints Used in Cover:360
GRASP Method!
Number cuts repeat: 0
value: 63.789567
Number Constraints Used in Cover:362
GRASP Method!
Number cuts repeat: 0
value: 63.789567
Number Constraints Used in Cover:365
GRASP Method!
Number cuts repeat: 0
value: 63.789567
Number Constraints Used in Cover:366
GRASP Method!
Number cuts repeat: 0
value: 63.789567
Number Constraints Used in Cover:367
GRASP Method!
Number cuts repeat: 0
value: 63.789567
Number Constraints Used in Cover:369
GRASP Method!
Number cuts repeat: 0
value: 63.789567
Number Constraints Used in Cover:369
GRASP Method!
Number cuts repeat: 0
value: 63.789567
Number Constraints Used in Cover:370
GRASP Method!
Number cuts repeat: 0
value: 63.789567
Number Constraints Used in Cover:374
GRASP Method!
Number cuts repeat: 0
value: 63.789567
Number Constraints Used in Cover:376
GRASP Method!
Number cuts repeat: 0
value: 63.789567
Number Constraints Used in Cover:378
GRASP Method!
Number cuts repeat: 0
value: 63.789567
Number Constraints Used in Cover:379
GRASP Method!
Number cuts repeat: 0
value: 63.789567
Number Constraints Used in Cover:380
GRASP Method!
Number cuts repeat: 0
value: 63.789567
Number Constraints Used in Cover:381
GRASP Method!
Number cuts repeat: 0
value: 63.789567
Number Constraints Used in Cover:386
GRASP Method!
Number cuts repeat: 0
value: 63.789567
Number Constraints Used in Cover:386
GRASP Method!
Number cuts repeat: 0
value: 63.789567
Number Constraints Used in Cover:388
GRASP Method!
Number cuts repeat: 0
value: 63.789567
Number Constraints Used in Cover:391
GRASP Method!
Number cuts repeat: 0
value: 63.789567
Number Constraints Used in Cover:393
GRASP Method!
Number cuts repeat: 0
value: 63.789567
Number Constraints Used in Cover:395
GRASP Method!
Number cuts repeat: 0
value: 63.789567
Number Constraints Used in Cover:396
GRASP Method!
Number cuts repeat: 0
value: 63.789567
Number Constraints Used in Cover:398
GRASP Method!
Number cuts repeat: 0
value: 63.789567
Number Constraints Used in Cover:398
GRASP Method!
Number cuts repeat: 0
value: 63.789567
Number Constraints Used in Cover:399
GRASP Method!
Number cuts repeat: 0
value: 63.789567
Number Constraints Used in Cover:403
GRASP Method!
Number cuts repeat: 0
value: 63.789567
Number Constraints Used in Cover:404
GRASP Method!
Number cuts repeat: 0
value: 63.789567
Number Constraints Used in Cover:406
GRASP Method!
Number cuts repeat: 0
value: 63.789567
Number Constraints Used in Cover:407
GRASP Method!
Number cuts repeat: 0
value: 63.789567
Number Constraints Used in Cover:408
GRASP Method!
Number cuts repeat: 0
value: 63.789567
Number Constraints Used in Cover:408
GRASP Method!
Number cuts repeat: 0
value: 63.789567
Number Constraints Used in Cover:409
GRASP Method!
Number cuts repeat: 0
value: 63.789567
Number Constraints Used in Cover:409
GRASP Method!
Number cuts repeat: 0
value: 63.789567
Number Constraints Used in Cover:412
GRASP Method!
Number cuts repeat: 0
value: 63.789567
Number Constraints Used in Cover:413
GRASP Method!
Number cuts repeat: 0
value: 63.789567
Number Constraints Used in Cover:416
GRASP Method!
Number cuts repeat: 0
value: 63.789567
Number Constraints Used in Cover:417
GRASP Method!
Number cuts repeat: 0
value: 63.789567
Number Constraints Used in Cover:419
GRASP Method!
Number cuts repeat: 0
value: 63.789567
Number Constraints Used in Cover:421
GRASP Method!
Number cuts repeat: 0
value: 63.789567
Number Constraints Used in Cover:421
GRASP Method!
Number cuts repeat: 0
value: 63.789567
Number Constraints Used in Cover:423
GRASP Method!
Number cuts repeat: 0
value: 63.789567
Number Constraints Used in Cover:425
GRASP Method!
Number cuts repeat: 0
value: 63.789567
Number Constraints Used in Cover:426
GRASP Method!
Number cuts repeat: 0
value: 63.789567
Number Constraints Used in Cover:428
GRASP Method!
Number cuts repeat: 0
value: 63.789567
Number Constraints Used in Cover:429
GRASP Method!
Number cuts repeat: 0
value: 63.789567
Number Constraints Used in Cover:430
GRASP Method!
Number cuts repeat: 0
value: 63.789567
Number Constraints Used in Cover:430
GRASP Method!
Number cuts repeat: 0
value: 63.789567
Number Constraints Used in Cover:430
GRASP Method!
Number cuts repeat: 0
value: 63.789567
Number Constraints Used in Cover:430
GRASP Method!
Number cuts repeat: 0
value: 63.789567
Number Constraints Used in Cover:432
GRASP Method!
Number cuts repeat: 0
value: 63.789567
Number Constraints Used in Cover:433
GRASP Method!
Number cuts repeat: 0
value: 63.789567
Number Constraints Used in Cover:435
GRASP Method!
Number cuts repeat: 0
value: 63.789567
Number Constraints Used in Cover:438
GRASP Method!
Number cuts repeat: 0
value: 63.789567
Number Constraints Used in Cover:438
GRASP Method!
Number cuts repeat: 0
value: 63.789567
Number Constraints Used in Cover:439
GRASP Method!
Number cuts repeat: 0
value: 63.789567
Number Constraints Used in Cover:442
GRASP Method!
Number cuts repeat: 0
value: 63.789567
Number Constraints Used in Cover:442
GRASP Method!
Number cuts repeat: 0
value: 63.789567
Number Constraints Used in Cover:443
GRASP Method!
Number cuts repeat: 0
value: 63.789567
Number Constraints Used in Cover:444
GRASP Method!
Number cuts repeat: 0
value: 63.789567
Number Constraints Used in Cover:444
GRASP Method!
Number cuts repeat: 0
value: 63.789567
Number Constraints Used in Cover:446
GRASP Method!
Number cuts repeat: 0
value: 63.789567
Number Constraints Used in Cover:447
GRASP Method!
Number cuts repeat: 0
value: 63.789567
Number Constraints Used in Cover:448
GRASP Method!
Number cuts repeat: 0
value: 63.789567
Number Constraints Used in Cover:449
GRASP Method!
Number cuts repeat: 0
value: 63.789567
Number Constraints Used in Cover:451
GRASP Method!
Number cuts repeat: 0
value: 63.789567
Number Constraints Used in Cover:451
GRASP Method!
Number cuts repeat: 0
value: 63.789567
Number Constraints Used in Cover:452
GRASP Method!
Number cuts repeat: 0
value: 63.789567
Number Constraints Used in Cover:452
GRASP Method!
Number cuts repeat: 0
value: 63.789567
Number Constraints Used in Cover:453
GRASP Method!
Number cuts repeat: 0
value: 63.789567
Number Constraints Used in Cover:455
GRASP Method!
Number cuts repeat: 0
value: 63.789567
Number Constraints Used in Cover:457
GRASP Method!
Number cuts repeat: 0
value: 63.789567
Number Constraints Used in Cover:461
GRASP Method!
Number cuts repeat: 0
value: 63.789567
Number Cuts Final: 458
